Translating instance to solver...

Set parameter TimeLimit to value 28800
Gurobi Optimizer version 11.0.2 build v11.0.2rc0 (linux64 - "Ubuntu 22.04.4 LTS")

CPU model: Intel(R) Xeon(R) Gold 5120 CPU @ 2.20GHz, instruction set [SSE2|AVX|AVX2|AVX512]
Thread count: 28 physical cores, 56 logical processors, using up to 28 threads

Academic license 2463511 - for non-commercial use only - registered to lu___@cefet-rj.br
Optimize a model with 181495 rows, 83733 columns and 404996 nonzeros
Model fingerprint: 0xeaaa82aa
Variable types: 1 continuous, 83732 integer (83640 binary)
Coefficient statistics:
  Matrix range     [1e+00, 1e+05]
  Objective range  [3e-01, 8e-01]
  Bounds range     [1e+00, 8e+01]
  RHS range        [1e+00, 9e+01]
Presolve removed 148772 rows and 70390 columns
Presolve time: 3.37s
Presolved: 32723 rows, 13343 columns, 92847 nonzeros
Variable types: 0 continuous, 13343 integer (13252 binary)

Root relaxation: objective 1.529455e+00, 1615 iterations, 0.15 seconds (0.17 work units)

    Nodes    |    Current Node    |     Objective Bounds      |     Work
 Expl Unexpl |  Obj  Depth IntInf | Incumbent    BestBd   Gap | It/Node Time

     0     0    1.52946    0   41          -    1.52946      -     -    4s
H    0     0                       2.4471280    1.52946  37.5%     -    6s
     0     0    1.52946    0   83    2.44713    1.52946  37.5%     -    6s
H    0     0                       1.8353460    1.52946  16.7%     -    8s
     0     0    1.52946    0   44    1.83535    1.52946  16.7%     -    8s
     0     0    1.52946    0   49    1.83535    1.52946  16.7%     -    8s
     0     0    1.52946    0   31    1.83535    1.52946  16.7%     -    9s
     0     0    1.52946    0   51    1.83535    1.52946  16.7%     -    9s
     0     0    1.52946    0   81    1.83535    1.52946  16.7%     -    9s
     0     0    1.52946    0   36    1.83535    1.52946  16.7%     -    9s
     0     0    1.52946    0   31    1.83535    1.52946  16.7%     -    9s
     0     0    1.52946    0   28    1.83535    1.52946  16.7%     -    9s
     0     0    1.52946    0   54    1.83535    1.52946  16.7%     -    9s
     0     0    1.52946    0   32    1.83535    1.52946  16.7%     -    9s
     0     0    1.52946    0   32    1.83535    1.52946  16.7%     -    9s
     0     2    1.52946    0   32    1.83535    1.52946  16.7%     -    9s
     2     4    1.52946    0   49    1.83535    1.52946  16.7%   107   10s
   105    57    1.52946   17   77    1.83535    1.52946  16.7%   291   16s
   189    96    1.52946   18   42    1.83535    1.52946  16.7%   211   20s
  1788   424    1.52946   35   37    1.83535    1.52946  16.7%   154   25s
  5166   988 infeasible   34         1.83535    1.52946  16.7%   132   30s
  8691  1558    1.52946   35   34    1.83535    1.52946  16.7%   129   36s
 13295  1775    1.52946   45   61    1.83535    1.52946  16.7%   120   41s
 15074  1717 infeasible   56         1.83535    1.52946  16.7%   123   47s
 17076  1726 infeasible   32         1.83535    1.52946  16.7%   124   51s
 19662  1622 infeasible   54         1.83535    1.52946  16.7%   126   56s
 24370  1840    1.52946   32   43    1.83535    1.52946  16.7%   127   63s
 26334  1783 infeasible   62         1.83535    1.52946  16.7%   127   66s
 31588  1590 infeasible   42         1.83535    1.52946  16.7%   127   73s
 34676  1552 infeasible   82         1.83535    1.52946  16.7%   127   77s
 35957  1299 infeasible   43         1.83535    1.52946  16.7%   127   81s
 39201  1058 infeasible   58         1.83535    1.52946  16.7%   126   85s
 45115   675    1.52946   55   48    1.83535    1.52946  16.7%   127   92s
 48310   647 infeasible   24         1.83535    1.52946  16.7%   127   95s
 53117   489 infeasible   66         1.83535    1.52946  16.7%   125  102s
 56035   227 infeasible   80         1.83535    1.52946  16.7%   124  105s
 60407    36 infeasible   46         1.83535    1.52946  16.7%   124  110s

Cutting planes:
  Learned: 47
  Implied bound: 15
  Projected implied bound: 2
  MIR: 1
  Flow cover: 13
  Zero half: 8
  RLT: 28

Explored 61903 nodes (7687739 simplex iterations) in 113.80 seconds (96.17 work units)
Thread count was 28 (of 56 available processors)

Solution count 2: 1.83535 2.44713 

Optimal solution found (tolerance 1.00e-04)
Best objective 1.835346000000e+00, best bound 1.835346000000e+00, gap 0.0000%

Solver Wallclock Time (for this epsilon): 113.8049669265747 s
Python wallclock Time (for this epsilon): 127.85139846801758 s


Total Elapsed Time (since program call): 4250.876623868942 s

Results:

I = 1.835346 mA
C = 30.0 points
C ~= 12.0 km^2

Minimum Epsilon for this instance = 10
Maximum Epsilon for this instance = 100

Current Epsilon = 30


Preprocessing Time (for this epsilon): 0.0164182186126709 s


Updated solution vectors:
sol_I = [-1.529455,-1.529455,-1.835346]
sol_C = [17.0,22.0,30.0]
sol_eps = [10,20,30]
sol_gap = [0.0,0.0,0.0]
